\ Generated by MPModelProtoExporter
\   Name             : 
\   Format           : Free
\   Constraints      : 7
\   Variables        : 7
\     Binary         : 0
\     Integer        : 7
\     Continuous     : 0
Minimize
 Obj: +1 x[0] +1 x[1] +1 x[2] +1 x[3] +1 x[4] +1 x[5] +1 x[6] 
Subject to
 MON: +1 x[0] +1 x[3] +1 x[4] +1 x[5] +1 x[6]  >= 20
 TUE: +1 x[0] +1 x[1] +1 x[4] +1 x[5] +1 x[6]  >= 16
 WED: +1 x[0] +1 x[1] +1 x[2] +1 x[5] +1 x[6]  >= 13
 THU: +1 x[0] +1 x[1] +1 x[2] +1 x[3] +1 x[6]  >= 16
 FRI: +1 x[0] +1 x[1] +1 x[2] +1 x[3] +1 x[4]  >= 19
 SAT: +1 x[1] +1 x[2] +1 x[3] +1 x[4] +1 x[5]  >= 14
 SUN: +1 x[2] +1 x[3] +1 x[4] +1 x[5] +1 x[6]  >= 12
Bounds
 0 <= x[0] <= inf
 0 <= x[1] <= inf
 0 <= x[2] <= inf
 0 <= x[3] <= inf
 0 <= x[4] <= inf
 0 <= x[5] <= inf
 0 <= x[6] <= inf
Generals
 x[0]
 x[1]
 x[2]
 x[3]
 x[4]
 x[5]
 x[6]
End
